<number of tasks>
50

<cycle time>
1000

<order strength>
0.196


<task times>
1 211
2 451
3 581
4 186
5 562
6 216
7 402
8 204
9 106
10 238
11 81
12 198
13 265
14 85
15 441
16 110
17 240
18 47
19 236
20 261
21 75
22 116
23 323
24 406
25 35
26 82
27 167
28 467
29 473
30 148
31 24
32 103
33 105
34 499
35 305
36 42
37 88
38 143
39 323
40 71
41 493
42 40
43 66
44 507
45 46
46 468
47 476
48 107
49 537
50 155

<precedence relations>
1,29
2,9
3,11
6,8
6,10
7,8
7,12
7,13
8,29
9,16
10,15
10,21
11,17
11,20
13,14
13,18
13,19
14,29
15,23
16,26
17,25
18,24
18,27
21,22
21,28
22,29
23,32
24,30
25,31
26,32
26,33
26,50
29,34
29,35
29,36
29,37
29,38
29,41
30,39
31,40
32,42
36,46
37,44
39,43
41,45
43,47
44,49
45,48
45,50
46,50

<end>
